certificates/rado_a5_c14_N9.cnf
c Rad2 upper bound instance: x1 + 5*x2 - x3 = 14, interval [1,9]
p cnf 9 30
1 2 3 0
-1 -2 -3 0
1 4 7 0
-1 -4 -7 0
2 3 0
-2 -3 0
2 4 8 0
-2 -4 -8 0
3 4 0
-3 -4 0
3 4 9 0
-3 -4 -9 0
3 4 5 0
-3 -4 -5 0
1 2 5 0
-1 -2 -5 0
3 5 6 0
-3 -5 -6 0
2 6 0
-2 -6 0
3 6 7 0
-3 -6 -7 0
2 3 7 0
-2 -3 -7 0
3 7 8 0
-3 -7 -8 0
3 8 9 0
-3 -8 -9 0
2 5 9 0
-2 -5 -9 0
