certificates/rado_a5_c14_N9.drat
-8 -9 0
d -3 -8 -9 0
3 -9 0
-9 0
-3 0
2 0
4 0
8 0
-6 0
0
